Problem:    Tp
Rows:       99
Columns:    144 (144 integer, 96 binary)
Non-zeros:  485
Status:     INTEGER OPTIMAL
Objective:  custo = 689 (MINimum)

   No.   Row name        Activity     Lower bound   Upper bound
------ ------------    ------------- ------------- -------------
     1 custo                     149                             
     2 restricao_02[1,2]
                                   2             2             = 
     3 restricao_02[1,3]
                                   4             4             = 
     4 restricao_02[2,2]
                                   3             3             = 
     5 restricao_02[2,3]
                                   1             1             = 
     6 restricao_02[3,2]
                                   1             1             = 
     7 restricao_02[3,3]
                                   5             5             = 
     8 restricao_03[1]
                                   0                           5 
     9 restricao_03[2]
                                   0                           3 
    10 restricao_03[3]
                                   1                           4 
    11 restricao_04[1,0,1]
                                   0                          -0 
    12 restricao_04[1,0,2]
                                   0                          -0 
    13 restricao_04[1,1,1]
                                   0                          -0 
    14 restricao_04[1,1,2]
                                   0                          -0 
    15 restricao_04[1,2,1]
                                   0                          -0 
    16 restricao_04[1,2,2]
                                   0                          -0 
    17 restricao_04[1,3,1]
                                   0                          -0 
    18 restricao_04[1,3,2]
                                   0                          -0 
    19 restricao_04[2,0,1]
                                   0                          -0 
    20 restricao_04[2,0,2]
                                   0                          -0 
    21 restricao_04[2,1,1]
                                   0                          -0 
    22 restricao_04[2,1,2]
                                   0                          -0 
    23 restricao_04[2,2,1]
                                   0                          -0 
    24 restricao_04[2,2,2]
                                   0                          -0 
    25 restricao_04[2,3,1]
                                  -3                          -0 
    26 restricao_04[2,3,2]
                                  -4                          -0 
    27 restricao_04[3,0,1]
                                  -4                          -0 
    28 restricao_04[3,0,2]
                                  -4                          -0 
    29 restricao_04[3,1,1]
                                  -5                          -0 
    30 restricao_04[3,1,2]
                                  -5                          -0 
    31 restricao_04[3,2,1]
                                  -3                          -0 
    32 restricao_04[3,2,2]
                                  -3                          -0 
    33 restricao_04[3,3,1]
                                   0                          -0 
    34 restricao_04[3,3,2]
                                   0                          -0 
    35 restricao_05[0,1]
                                   1             1             = 
    36 restricao_05[0,2]
                                   1             1             = 
    37 restricao_05[1,1]
                                   1             1             = 
    38 restricao_05[1,2]
                                   1             1             = 
    39 restricao_05[2,1]
                                   1             1             = 
    40 restricao_05[2,2]
                                   1             1             = 
    41 restricao_05[3,1]
                                   1             1             = 
    42 restricao_05[3,2]
                                   1             1             = 
    43 restricao_06[1,2,2,1]
                                   0            -0             = 
    44 restricao_06[1,3,2,1]
                                   0            -0             = 
    45 restricao_06[2,2,2,1]
                                   0            -0             = 
    46 restricao_06[2,3,2,1]
                                   0            -0             = 
    47 restricao_06[3,2,2,1]
                                   0            -0             = 
    48 restricao_06[3,3,2,1]
                                   0            -0             = 
    49 resticao_07[1,0,1]
                                   0            -0             = 
    50 resticao_07[1,0,2]
                                   0            -0             = 
    51 resticao_07[1,1,1]
                                   0            -0             = 
    52 resticao_07[1,1,2]
                                   0            -0             = 
    53 resticao_07[1,2,1]
                                   0            -0             = 
    54 resticao_07[1,2,2]
                                   0            -0             = 
    55 resticao_07[1,3,1]
                                   0            -0             = 
    56 resticao_07[1,3,2]
                                   0            -0             = 
    57 resticao_07[2,0,1]
                                   0            -0             = 
    58 resticao_07[2,0,2]
                                   0            -0             = 
    59 resticao_07[2,1,1]
                                   0            -0             = 
    60 resticao_07[2,1,2]
                                   0            -0             = 
    61 resticao_07[2,2,1]
                                   0            -0             = 
    62 resticao_07[2,2,2]
                                   0            -0             = 
    63 resticao_07[2,3,1]
                                   0            -0             = 
    64 resticao_07[2,3,2]
                                   0            -0             = 
    65 resticao_07[3,0,1]
                                   0            -0             = 
    66 resticao_07[3,0,2]
                                   0            -0             = 
    67 resticao_07[3,1,1]
                                   0            -0             = 
    68 resticao_07[3,1,2]
                                   0            -0             = 
    69 resticao_07[3,2,1]
                                   0            -0             = 
    70 resticao_07[3,2,2]
                                   0            -0             = 
    71 resticao_07[3,3,1]
                                   0            -0             = 
    72 resticao_07[3,3,2]
                                   0            -0             = 
    73 restricao_08[1,0,1]
                                   0            -0             = 
    74 restricao_08[1,0,2]
                                   0            -0             = 
    75 restricao_08[1,1,1]
                                   0            -0             = 
    76 restricao_08[1,1,2]
                                   0            -0             = 
    77 restricao_08[1,2,1]
                                   0            -0             = 
    78 restricao_08[1,2,2]
                                   0            -0             = 
    79 restricao_08[1,3,1]
                                   0            -0             = 
    80 restricao_08[1,3,2]
                                   0            -0             = 
    81 restricao_08[2,0,1]
                                   0            -0             = 
    82 restricao_08[2,0,2]
                                   0            -0             = 
    83 restricao_08[2,1,1]
                                   0            -0             = 
    84 restricao_08[2,1,2]
                                   0            -0             = 
    85 restricao_08[2,2,1]
                                   0            -0             = 
    86 restricao_08[2,2,2]
                                   0            -0             = 
    87 restricao_08[2,3,1]
                                   0            -0             = 
    88 restricao_08[2,3,2]
                                   0            -0             = 
    89 restricao_08[3,0,1]
                                   0            -0             = 
    90 restricao_08[3,0,2]
                                   0            -0             = 
    91 restricao_08[3,1,1]
                                   0            -0             = 
    92 restricao_08[3,1,2]
                                   0            -0             = 
    93 restricao_08[3,2,1]
                                   0            -0             = 
    94 restricao_08[3,2,2]
                                   0            -0             = 
    95 restricao_08[3,3,1]
                                   0            -0             = 
    96 restricao_08[3,3,2]
                                   0            -0             = 
    97 restricao_esqtoque_inicial[1]
                                   2             2             = 
    98 restricao_esqtoque_inicial[2]
                                   3             3             = 
    99 restricao_esqtoque_inicial[3]
                                   1             1             = 

   No. Column name       Activity     Lower bound   Upper bound
------ ------------    ------------- ------------- -------------
     1 Xjs[2,1,1]   *              0             0               
     2 Xjs[2,1,2]   *              0             0               
     3 Xjs[2,2,1]   *              0             0               
     4 Xjs[2,2,2]   *              0             0               
     5 Xjs[2,3,1]   *              0             0               
     6 Xjs[2,3,2]   *              0             0               
     7 Xjs[3,1,1]   *              0             0               
     8 Xjs[3,1,2]   *              0             0               
     9 Xjs[3,2,1]   *              1             0               
    10 Xjs[3,2,2]   *              0             0               
    11 Xjs[3,3,1]   *              0             0               
    12 Xjs[3,3,2]   *              0             0               
    13 Xjs[1,1,1]   *              0             0               
    14 Xjs[1,1,2]   *              0             0               
    15 Xjs[1,2,1]   *              0             0               
    16 Xjs[1,2,2]   *              0             0               
    17 Xjs[1,3,1]   *              0             0               
    18 Xjs[1,3,2]   *              0             0               
    19 Xjs[0,1,1]   *              0             0               
    20 Xjs[0,1,2]   *              0             0               
    21 Xjs[0,2,1]   *              0             0               
    22 Xjs[0,2,2]   *              0             0               
    23 Xjs[0,3,1]   *              0             0               
    24 Xjs[0,3,2]   *              0             0               
    25 Iit[1,0]     *              0             0               
    26 Iit[1,1]     *              2             0               
    27 Iit[1,2]     *              0             0               
    28 Iit[1,3]     *              0             0               
    29 Iit[2,0]     *              0             0               
    30 Iit[2,1]     *              3             0               
    31 Iit[2,2]     *              0             0               
    32 Iit[2,3]     *              0             0               
    33 Iit[3,0]     *              0             0               
    34 Iit[3,1]     *              1             0               
    35 Iit[3,2]     *              0             0               
    36 Iit[3,3]     *              0             0               
    37 Bit[1,0]     *              0             0               
    38 Bit[1,1]     *              0             0               
    39 Bit[1,2]     *              0             0               
    40 Bit[1,3]     *              1             0               
    41 Bit[2,0]     *              0             0               
    42 Bit[2,1]     *              0             0               
    43 Bit[2,2]     *              0             0               
    44 Bit[2,3]     *              0             0               
    45 Bit[3,0]     *              0             0               
    46 Bit[3,1]     *              0             0               
    47 Bit[3,2]     *              0             0               
    48 Bit[3,3]     *              3             0               
    49 Yjs[0,1,1]   *              0             0             1 
    50 Yjs[0,1,2]   *              0             0             1 
    51 Yjs[1,1,1]   *              0             0             1 
    52 Yjs[1,1,2]   *              0             0             1 
    53 Yjs[2,1,1]   *              0             0             1 
    54 Yjs[2,1,2]   *              0             0             1 
    55 Yjs[3,1,1]   *              0             0             1 
    56 Yjs[3,1,2]   *              0             0             1 
    57 Yjs[0,2,1]   *              0             0             1 
    58 Yjs[0,2,2]   *              0             0             1 
    59 Yjs[1,2,1]   *              0             0             1 
    60 Yjs[1,2,2]   *              0             0             1 
    61 Yjs[2,2,1]   *              0             0             1 
    62 Yjs[2,2,2]   *              0             0             1 
    63 Yjs[3,2,1]   *              1             0             1 
    64 Yjs[3,2,2]   *              1             0             1 
    65 Yjs[0,3,1]   *              1             0             1 
    66 Yjs[0,3,2]   *              1             0             1 
    67 Yjs[1,3,1]   *              1             0             1 
    68 Yjs[1,3,2]   *              1             0             1 
    69 Yjs[2,3,1]   *              1             0             1 
    70 Yjs[2,3,2]   *              1             0             1 
    71 Yjs[3,3,1]   *              0             0             1 
    72 Yjs[3,3,2]   *              0             0             1 
    73 Zjks[0,1,1,1]
                    *              0             0             1 
    74 Zjks[0,1,1,2]
                    *              0             0             1 
    75 Zjks[0,1,2,1]
                    *              0             0             1 
    76 Zjks[0,1,2,2]
                    *              0             0             1 
    77 Zjks[0,1,3,1]
                    *              0             0             1 
    78 Zjks[0,1,3,2]
                    *              0             0             1 
    79 Zjks[0,2,1,1]
                    *              0             0             1 
    80 Zjks[0,2,1,2]
                    *              0             0             1 
    81 Zjks[0,2,2,1]
                    *              0             0             1 
    82 Zjks[0,2,2,2]
                    *              0             0             1 
    83 Zjks[0,2,3,1]
                    *              0             0             1 
    84 Zjks[0,2,3,2]
                    *              0             0             1 
    85 Zjks[0,3,1,1]
                    *              0             0             1 
    86 Zjks[0,3,1,2]
                    *              0             0             1 
    87 Zjks[0,3,2,1]
                    *              0             0             1 
    88 Zjks[0,3,2,2]
                    *              0             0             1 
    89 Zjks[0,3,3,1]
                    *              1             0             1 
    90 Zjks[0,3,3,2]
                    *              1             0             1 
    91 Zjks[1,1,1,1]
                    *              0             0             1 
    92 Zjks[1,1,1,2]
                    *              0             0             1 
    93 Zjks[1,1,2,1]
                    *              0             0             1 
    94 Zjks[1,1,2,2]
                    *              0             0             1 
    95 Zjks[1,1,3,1]
                    *              0             0             1 
    96 Zjks[1,1,3,2]
                    *              0             0             1 
    97 Zjks[1,2,1,1]
                    *              0             0             1 
    98 Zjks[1,2,1,2]
                    *              0             0             1 
    99 Zjks[1,2,2,1]
                    *              0             0             1 
   100 Zjks[1,2,2,2]
                    *              0             0             1 
   101 Zjks[1,2,3,1]
                    *              0             0             1 
   102 Zjks[1,2,3,2]
                    *              0             0             1 
   103 Zjks[1,3,1,1]
                    *              0             0             1 
   104 Zjks[1,3,1,2]
                    *              0             0             1 
   105 Zjks[1,3,2,1]
                    *              0             0             1 
   106 Zjks[1,3,2,2]
                    *              0             0             1 
   107 Zjks[1,3,3,1]
                    *              1             0             1 
   108 Zjks[1,3,3,2]
                    *              1             0             1 
   109 Zjks[2,1,1,1]
                    *              0             0             1 
   110 Zjks[2,1,1,2]
                    *              0             0             1 
   111 Zjks[2,1,2,1]
                    *              0             0             1 
   112 Zjks[2,1,2,2]
                    *              0             0             1 
   113 Zjks[2,1,3,1]
                    *              0             0             1 
   114 Zjks[2,1,3,2]
                    *              0             0             1 
   115 Zjks[2,2,1,1]
                    *              0             0             1 
   116 Zjks[2,2,1,2]
                    *              0             0             1 
   117 Zjks[2,2,2,1]
                    *              0             0             1 
   118 Zjks[2,2,2,2]
                    *              0             0             1 
   119 Zjks[2,2,3,1]
                    *              0             0             1 
   120 Zjks[2,2,3,2]
                    *              0             0             1 
   121 Zjks[2,3,1,1]
                    *              0             0             1 
   122 Zjks[2,3,1,2]
                    *              0             0             1 
   123 Zjks[2,3,2,1]
                    *              0             0             1 
   124 Zjks[2,3,2,2]
                    *              0             0             1 
   125 Zjks[2,3,3,1]
                    *              1             0             1 
   126 Zjks[2,3,3,2]
                    *              1             0             1 
   127 Zjks[3,1,1,1]
                    *              0             0             1 
   128 Zjks[3,1,1,2]
                    *              0             0             1 
   129 Zjks[3,1,2,1]
                    *              0             0             1 
   130 Zjks[3,1,2,2]
                    *              0             0             1 
   131 Zjks[3,1,3,1]
                    *              0             0             1 
   132 Zjks[3,1,3,2]
                    *              0             0             1 
   133 Zjks[3,2,1,1]
                    *              0             0             1 
   134 Zjks[3,2,1,2]
                    *              0             0             1 
   135 Zjks[3,2,2,1]
                    *              1             0             1 
   136 Zjks[3,2,2,2]
                    *              1             0             1 
   137 Zjks[3,2,3,1]
                    *              0             0             1 
   138 Zjks[3,2,3,2]
                    *              0             0             1 
   139 Zjks[3,3,1,1]
                    *              0             0             1 
   140 Zjks[3,3,1,2]
                    *              0             0             1 
   141 Zjks[3,3,2,1]
                    *              0             0             1 
   142 Zjks[3,3,2,2]
                    *              0             0             1 
   143 Zjks[3,3,3,1]
                    *              0             0             1 
   144 Zjks[3,3,3,2]
                    *              0             0             1 

Integer feasibility conditions:

KKT.PE: max.abs.err = 0.00e+00 on row 0
        max.rel.err = 0.00e+00 on row 0
        High quality

KKT.PB: max.abs.err = 0.00e+00 on row 0
        max.rel.err = 0.00e+00 on row 0
        High quality

End of output
